p tw 33 38
1 2
2 13
3 4
3 11
4 26
5 6
6 7
6 11
7 26
8 9
9 10
9 11
10 26
11 12
12 14
13 24
14 15
15 16
16 17
17 18
18 19
19 20
20 21
21 22
22 23
23 25
24 28
24 33
25 26
26 27
28 29
29 30
29 5
30 31
31 32
31 8
32 11
33 3
